(set-logic QF_BV)
(define-fun implies ((p Bool) (q Bool)) Bool (or (not p) q))

(declare-const TankWar Bool)
(declare-const Tank_Player1 Bool)
(declare-const Black_P1 Bool)
(declare-const Red_P1 Bool)
(declare-const Red_Tier1_P1 Bool)
(declare-const Yellow_Tier1_P1 Bool)
(declare-const Blue_Tier2_P1 Bool)
(declare-const Green_Tier2_P1 Bool)
(declare-const Tank_Player2 Bool)
(declare-const Black_P2 Bool)
(declare-const Red_P2 Bool)
(declare-const Red_Tier1_P2 Bool)
(declare-const Yellow_Tier1_P2 Bool)
(declare-const Blue_Tier2_P2 Bool)
(declare-const Green_Tier2_P2 Bool)
(declare-const mov Bool)
(declare-const mov_0 Bool)
(declare-const mov_1 Bool)
(declare-const mov_2 Bool)
(declare-const mov_3 Bool)
(declare-const mov_4 Bool)
(declare-const Power_Ups Bool)
(declare-const Flower Bool)
(declare-const Blue_Flower Bool)
(declare-const Copy Bool)
(declare-const Fire Bool)
(declare-const Light_Bulb_Round Bool)
(declare-const Green Bool)
(declare-const Heart Bool)
(declare-const Circle Bool)
(declare-const Cow Bool)
(declare-const Light_Bulb Bool)
(declare-const Octagonal Bool)
(declare-const Mushroom Bool)
(declare-const Pumpkin_Pie Bool)
(declare-const Ring Bool)
(declare-const Ring_2 Bool)
(declare-const Ring_Oval Bool)
(declare-const Ring_Oval_Small Bool)
(declare-const Sponge Bool)
(declare-const Spiral Bool)
(declare-const Star_Oval Bool)
(declare-const Star_Oval_Small Bool)
(declare-const Star_Ring Bool)
(declare-const Background Bool)
(declare-const Default Bool)
(declare-const Blue_White Bool)
(declare-const Blue_White_Green Bool)
(declare-const Purple_White Bool)
(declare-const Glass Bool)
(declare-const Lava Bool)
(declare-const Limba Bool)
(declare-const Old Bool)
(declare-const Ov_Paper Bool)
(declare-const Paper Bool)
(declare-const Univ Bool)
(declare-const Water Bool)
(declare-const Water_2 Bool)
(declare-const rocketStyle Bool)
(declare-const Rectangle Bool)
(declare-const Oval Bool)
(declare-const aa31 Bool)
(declare-const Portal Bool)
(declare-const Nino Bool)
(declare-const Sounds Bool)
(declare-const Player1_Sound_Rotation Bool)
(declare-const P1_Rot_Beep1 Bool)
(declare-const P1_Rot_Beep2 Bool)
(declare-const P1_Rot_Beep3 Bool)
(declare-const P1_Rot_Bleep1 Bool)
(declare-const P1_Rot_Buzzer Bool)
(declare-const P1_Rot_Cash_register Bool)
(declare-const P1_Rot_Cork Bool)
(declare-const P1_Rot_Game_Win Bool)
(declare-const P1_Rot_Drip Bool)
(declare-const P1_Rot_Gorod Bool)
(declare-const P1_Rot_Horn Bool)
(declare-const P1_Rot_Laser_Trill Bool)
(declare-const P1_Rot_Police_Siren Bool)
(declare-const P1_Rot_Siren_1 Bool)
(declare-const P1_Rot_Siren_2 Bool)
(declare-const P1_Rot_yes Bool)
(declare-const PLayer1_Sound_Movement Bool)
(declare-const P1_Mov_Beep1 Bool)
(declare-const P1_Mov_Beep2 Bool)
(declare-const P1_Mov_Beep3 Bool)
(declare-const P1_Mov_Bleep1 Bool)
(declare-const P1_Mov_Buzzer Bool)
(declare-const P1_Mov_Cash_Register Bool)
(declare-const P1_Mov_Cork Bool)
(declare-const P1_Mov_Game_Win Bool)
(declare-const P1_Mov_Drip Bool)
(declare-const P1_Mov_Gorod Bool)
(declare-const P1_Mov_Horn Bool)
(declare-const P1_Mov_LaserTrill Bool)
(declare-const P1_Mov_Police_Siren Bool)
(declare-const P1_Mov_Siren_1 Bool)
(declare-const P1_Mov_Siren2 Bool)
(declare-const P1_Mov_yes Bool)
(declare-const Player2_Sound_Rotation Bool)
(declare-const P2_Rot_Beep1 Bool)
(declare-const P2_Rot_Beep2 Bool)
(declare-const P2_Rot_Beep3 Bool)
(declare-const P2_Rot_Bleep1 Bool)
(declare-const P2_Rot_Buzzer Bool)
(declare-const P2_Rot_Cash_Register Bool)
(declare-const P2_Rot_Cork Bool)
(declare-const P2_Rot_Game_Win Bool)
(declare-const P2_Rot_Drip Bool)
(declare-const P2_Rot_Gorod Bool)
(declare-const P2_Rot_Horn Bool)
(declare-const P2_Rot_Laser_Trill Bool)
(declare-const P2_Rot_Police_Siren Bool)
(declare-const P2_Rot_Siren_1 Bool)
(declare-const P2_Rot_Siren_2 Bool)
(declare-const P2_Rot_Yes Bool)
(declare-const Player2_Sound_Movement Bool)
(declare-const P2_Mov_Beep1 Bool)
(declare-const P2_Mov_Beep2 Bool)
(declare-const P2_Mov_Beep3 Bool)
(declare-const P2_Mov_Bleep1 Bool)
(declare-const P2_Mov_Buzzer Bool)
(declare-const P2_Mov_Cah_Register Bool)
(declare-const P2_Mov_cork Bool)
(declare-const P2_Mov_Game_Win Bool)
(declare-const P2_Mov_Drip Bool)
(declare-const P2_Mov_Gorord Bool)
(declare-const P2_Mov_Horn Bool)
(declare-const P2_Mov_LaserTrill Bool)
(declare-const P2_Mov_Police_Siren Bool)
(declare-const P2_Mov_Siren_1 Bool)
(declare-const P2_Mov_Siren_2 Bool)
(declare-const P2_Mov_Yes Bool)
(declare-const tar Bool)
(declare-const Hinderniss_Set Bool)
(declare-const Activate_Power_Up Bool)
(declare-const Nr1 Bool)
(declare-const Nr2 Bool)
(declare-const Nr3 Bool)
(declare-const Nr4 Bool)
(declare-const Nr5 Bool)
(declare-const Nr6 Bool)
(declare-const Nr7 Bool)
(declare-const Nr8 Bool)
(assert
(and TankWar(and(implies(or Black_P1 Red_P1 Red_Tier1_P1 Yellow_Tier1_P1 Blue_Tier2_P1 Green_Tier2_P1)
 Tank_Player1)
(implies Tank_Player1(or(and Black_P1(not Red_P1)
(not Red_Tier1_P1)
(not Yellow_Tier1_P1)
(not Blue_Tier2_P1)
(not Green_Tier2_P1))
(and(not Black_P1)
 Red_P1(not Red_Tier1_P1)
(not Yellow_Tier1_P1)
(not Blue_Tier2_P1)
(not Green_Tier2_P1))
(and(not Black_P1)
(not Red_P1)
 Red_Tier1_P1(not Yellow_Tier1_P1)
(not Blue_Tier2_P1)
(not Green_Tier2_P1))
(and(not Black_P1)
(not Red_P1)
(not Red_Tier1_P1)
 Yellow_Tier1_P1(not Blue_Tier2_P1)
(not Green_Tier2_P1))
(and(not Black_P1)
(not Red_P1)
(not Red_Tier1_P1)
(not Yellow_Tier1_P1)
 Blue_Tier2_P1(not Green_Tier2_P1))
(and(not Black_P1)
(not Red_P1)
(not Red_Tier1_P1)
(not Yellow_Tier1_P1)
(not Blue_Tier2_P1)
 Green_Tier2_P1)))
(and(implies(or Black_P2 Red_P2 Red_Tier1_P2 Yellow_Tier1_P2 Blue_Tier2_P2 Green_Tier2_P2)
 Tank_Player2)
(implies Tank_Player2(or(and Black_P2(not Red_P2)
(not Red_Tier1_P2)
(not Yellow_Tier1_P2)
(not Blue_Tier2_P2)
(not Green_Tier2_P2))
(and(not Black_P2)
 Red_P2(not Red_Tier1_P2)
(not Yellow_Tier1_P2)
(not Blue_Tier2_P2)
(not Green_Tier2_P2))
(and(not Black_P2)
(not Red_P2)
 Red_Tier1_P2(not Yellow_Tier1_P2)
(not Blue_Tier2_P2)
(not Green_Tier2_P2))
(and(not Black_P2)
(not Red_P2)
(not Red_Tier1_P2)
 Yellow_Tier1_P2(not Blue_Tier2_P2)
(not Green_Tier2_P2))
(and(not Black_P2)
(not Red_P2)
(not Red_Tier1_P2)
(not Yellow_Tier1_P2)
 Blue_Tier2_P2(not Green_Tier2_P2))
(and(not Black_P2)
(not Red_P2)
(not Red_Tier1_P2)
(not Yellow_Tier1_P2)
(not Blue_Tier2_P2)
 Green_Tier2_P2))))
(and(implies(or mov_0 mov_1 mov_2 mov_3 mov_4)
 mov)
(implies mov(or(and mov_0(not mov_1)
(not mov_2)
(not mov_3)
(not mov_4))
(and(not mov_0)
 mov_1(not mov_2)
(not mov_3)
(not mov_4))
(and(not mov_0)
(not mov_1)
 mov_2(not mov_3)
(not mov_4))
(and(not mov_0)
(not mov_1)
(not mov_2)
 mov_3(not mov_4))
(and(not mov_0)
(not mov_1)
(not mov_2)
(not mov_3)
 mov_4))))
(=(or Flower Blue_Flower Copy Fire Light_Bulb_Round Green Heart Circle Cow Light_Bulb Octagonal Mushroom Pumpkin_Pie Ring Ring_2 Ring_Oval Ring_Oval_Small Sponge Spiral Star_Oval Star_Oval_Small Star_Ring)
 Power_Ups)
(and(implies(or Default Blue_White Blue_White_Green Purple_White Glass Lava Limba Old Ov_Paper Paper Univ Water Water_2)
 Background)
(implies Background(or(and Default(not Blue_White)
(not Blue_White_Green)
(not Purple_White)
(not Glass)
(not Lava)
(not Limba)
(not Old)
(not Ov_Paper)
(not Paper)
(not Univ)
(not Water)
(not Water_2))
(and(not Default)
 Blue_White(not Blue_White_Green)
(not Purple_White)
(not Glass)
(not Lava)
(not Limba)
(not Old)
(not Ov_Paper)
(not Paper)
(not Univ)
(not Water)
(not Water_2))
(and(not Default)
(not Blue_White)
 Blue_White_Green(not Purple_White)
(not Glass)
(not Lava)
(not Limba)
(not Old)
(not Ov_Paper)
(not Paper)
(not Univ)
(not Water)
(not Water_2))
(and(not Default)
(not Blue_White)
(not Blue_White_Green)
 Purple_White(not Glass)
(not Lava)
(not Limba)
(not Old)
(not Ov_Paper)
(not Paper)
(not Univ)
(not Water)
(not Water_2))
(and(not Default)
(not Blue_White)
(not Blue_White_Green)
(not Purple_White)
 Glass(not Lava)
(not Limba)
(not Old)
(not Ov_Paper)
(not Paper)
(not Univ)
(not Water)
(not Water_2))
(and(not Default)
(not Blue_White)
(not Blue_White_Green)
(not Purple_White)
(not Glass)
 Lava(not Limba)
(not Old)
(not Ov_Paper)
(not Paper)
(not Univ)
(not Water)
(not Water_2))
(and(not Default)
(not Blue_White)
(not Blue_White_Green)
(not Purple_White)
(not Glass)
(not Lava)
 Limba(not Old)
(not Ov_Paper)
(not Paper)
(not Univ)
(not Water)
(not Water_2))
(and(not Default)
(not Blue_White)
(not Blue_White_Green)
(not Purple_White)
(not Glass)
(not Lava)
(not Limba)
 Old(not Ov_Paper)
(not Paper)
(not Univ)
(not Water)
(not Water_2))
(and(not Default)
(not Blue_White)
(not Blue_White_Green)
(not Purple_White)
(not Glass)
(not Lava)
(not Limba)
(not Old)
 Ov_Paper(not Paper)
(not Univ)
(not Water)
(not Water_2))
(and(not Default)
(not Blue_White)
(not Blue_White_Green)
(not Purple_White)
(not Glass)
(not Lava)
(not Limba)
(not Old)
(not Ov_Paper)
 Paper(not Univ)
(not Water)
(not Water_2))
(and(not Default)
(not Blue_White)
(not Blue_White_Green)
(not Purple_White)
(not Glass)
(not Lava)
(not Limba)
(not Old)
(not Ov_Paper)
(not Paper)
 Univ(not Water)
(not Water_2))
(and(not Default)
(not Blue_White)
(not Blue_White_Green)
(not Purple_White)
(not Glass)
(not Lava)
(not Limba)
(not Old)
(not Ov_Paper)
(not Paper)
(not Univ)
 Water(not Water_2))
(and(not Default)
(not Blue_White)
(not Blue_White_Green)
(not Purple_White)
(not Glass)
(not Lava)
(not Limba)
(not Old)
(not Ov_Paper)
(not Paper)
(not Univ)
(not Water)
 Water_2))))
(and(implies(or Rectangle Oval aa31 Portal Nino)
 rocketStyle)
(implies rocketStyle(or(and Rectangle(not Oval)
(not aa31)
(not Portal)
(not Nino))
(and(not Rectangle)
 Oval(not aa31)
(not Portal)
(not Nino))
(and(not Rectangle)
(not Oval)
 aa31(not Portal)
(not Nino))
(and(not Rectangle)
(not Oval)
(not aa31)
 Portal(not Nino))
(and(not Rectangle)
(not Oval)
(not aa31)
(not Portal)
 Nino))))
(and(implies(or P1_Rot_Beep1 P1_Rot_Beep2 P1_Rot_Beep3 P1_Rot_Bleep1 P1_Rot_Buzzer P1_Rot_Cash_register P1_Rot_Cork P1_Rot_Game_Win P1_Rot_Drip P1_Rot_Gorod P1_Rot_Horn P1_Rot_Laser_Trill P1_Rot_Police_Siren P1_Rot_Siren_1 P1_Rot_Siren_2 P1_Rot_yes)
 Player1_Sound_Rotation)
(implies Player1_Sound_Rotation(or(and P1_Rot_Beep1(not P1_Rot_Beep2)
(not P1_Rot_Beep3)
(not P1_Rot_Bleep1)
(not P1_Rot_Buzzer)
(not P1_Rot_Cash_register)
(not P1_Rot_Cork)
(not P1_Rot_Game_Win)
(not P1_Rot_Drip)
(not P1_Rot_Gorod)
(not P1_Rot_Horn)
(not P1_Rot_Laser_Trill)
(not P1_Rot_Police_Siren)
(not P1_Rot_Siren_1)
(not P1_Rot_Siren_2)
(not P1_Rot_yes))
(and(not P1_Rot_Beep1)
 P1_Rot_Beep2(not P1_Rot_Beep3)
(not P1_Rot_Bleep1)
(not P1_Rot_Buzzer)
(not P1_Rot_Cash_register)
(not P1_Rot_Cork)
(not P1_Rot_Game_Win)
(not P1_Rot_Drip)
(not P1_Rot_Gorod)
(not P1_Rot_Horn)
(not P1_Rot_Laser_Trill)
(not P1_Rot_Police_Siren)
(not P1_Rot_Siren_1)
(not P1_Rot_Siren_2)
(not P1_Rot_yes))
(and(not P1_Rot_Beep1)
(not P1_Rot_Beep2)
 P1_Rot_Beep3(not P1_Rot_Bleep1)
(not P1_Rot_Buzzer)
(not P1_Rot_Cash_register)
(not P1_Rot_Cork)
(not P1_Rot_Game_Win)
(not P1_Rot_Drip)
(not P1_Rot_Gorod)
(not P1_Rot_Horn)
(not P1_Rot_Laser_Trill)
(not P1_Rot_Police_Siren)
(not P1_Rot_Siren_1)
(not P1_Rot_Siren_2)
(not P1_Rot_yes))
(and(not P1_Rot_Beep1)
(not P1_Rot_Beep2)
(not P1_Rot_Beep3)
 P1_Rot_Bleep1(not P1_Rot_Buzzer)
(not P1_Rot_Cash_register)
(not P1_Rot_Cork)
(not P1_Rot_Game_Win)
(not P1_Rot_Drip)
(not P1_Rot_Gorod)
(not P1_Rot_Horn)
(not P1_Rot_Laser_Trill)
(not P1_Rot_Police_Siren)
(not P1_Rot_Siren_1)
(not P1_Rot_Siren_2)
(not P1_Rot_yes))
(and(not P1_Rot_Beep1)
(not P1_Rot_Beep2)
(not P1_Rot_Beep3)
(not P1_Rot_Bleep1)
 P1_Rot_Buzzer(not P1_Rot_Cash_register)
(not P1_Rot_Cork)
(not P1_Rot_Game_Win)
(not P1_Rot_Drip)
(not P1_Rot_Gorod)
(not P1_Rot_Horn)
(not P1_Rot_Laser_Trill)
(not P1_Rot_Police_Siren)
(not P1_Rot_Siren_1)
(not P1_Rot_Siren_2)
(not P1_Rot_yes))
(and(not P1_Rot_Beep1)
(not P1_Rot_Beep2)
(not P1_Rot_Beep3)
(not P1_Rot_Bleep1)
(not P1_Rot_Buzzer)
 P1_Rot_Cash_register(not P1_Rot_Cork)
(not P1_Rot_Game_Win)
(not P1_Rot_Drip)
(not P1_Rot_Gorod)
(not P1_Rot_Horn)
(not P1_Rot_Laser_Trill)
(not P1_Rot_Police_Siren)
(not P1_Rot_Siren_1)
(not P1_Rot_Siren_2)
(not P1_Rot_yes))
(and(not P1_Rot_Beep1)
(not P1_Rot_Beep2)
(not P1_Rot_Beep3)
(not P1_Rot_Bleep1)
(not P1_Rot_Buzzer)
(not P1_Rot_Cash_register)
 P1_Rot_Cork(not P1_Rot_Game_Win)
(not P1_Rot_Drip)
(not P1_Rot_Gorod)
(not P1_Rot_Horn)
(not P1_Rot_Laser_Trill)
(not P1_Rot_Police_Siren)
(not P1_Rot_Siren_1)
(not P1_Rot_Siren_2)
(not P1_Rot_yes))
(and(not P1_Rot_Beep1)
(not P1_Rot_Beep2)
(not P1_Rot_Beep3)
(not P1_Rot_Bleep1)
(not P1_Rot_Buzzer)
(not P1_Rot_Cash_register)
(not P1_Rot_Cork)
 P1_Rot_Game_Win(not P1_Rot_Drip)
(not P1_Rot_Gorod)
(not P1_Rot_Horn)
(not P1_Rot_Laser_Trill)
(not P1_Rot_Police_Siren)
(not P1_Rot_Siren_1)
(not P1_Rot_Siren_2)
(not P1_Rot_yes))
(and(not P1_Rot_Beep1)
(not P1_Rot_Beep2)
(not P1_Rot_Beep3)
(not P1_Rot_Bleep1)
(not P1_Rot_Buzzer)
(not P1_Rot_Cash_register)
(not P1_Rot_Cork)
(not P1_Rot_Game_Win)
 P1_Rot_Drip(not P1_Rot_Gorod)
(not P1_Rot_Horn)
(not P1_Rot_Laser_Trill)
(not P1_Rot_Police_Siren)
(not P1_Rot_Siren_1)
(not P1_Rot_Siren_2)
(not P1_Rot_yes))
(and(not P1_Rot_Beep1)
(not P1_Rot_Beep2)
(not P1_Rot_Beep3)
(not P1_Rot_Bleep1)
(not P1_Rot_Buzzer)
(not P1_Rot_Cash_register)
(not P1_Rot_Cork)
(not P1_Rot_Game_Win)
(not P1_Rot_Drip)
 P1_Rot_Gorod(not P1_Rot_Horn)
(not P1_Rot_Laser_Trill)
(not P1_Rot_Police_Siren)
(not P1_Rot_Siren_1)
(not P1_Rot_Siren_2)
(not P1_Rot_yes))
(and(not P1_Rot_Beep1)
(not P1_Rot_Beep2)
(not P1_Rot_Beep3)
(not P1_Rot_Bleep1)
(not P1_Rot_Buzzer)
(not P1_Rot_Cash_register)
(not P1_Rot_Cork)
(not P1_Rot_Game_Win)
(not P1_Rot_Drip)
(not P1_Rot_Gorod)
 P1_Rot_Horn(not P1_Rot_Laser_Trill)
(not P1_Rot_Police_Siren)
(not P1_Rot_Siren_1)
(not P1_Rot_Siren_2)
(not P1_Rot_yes))
(and(not P1_Rot_Beep1)
(not P1_Rot_Beep2)
(not P1_Rot_Beep3)
(not P1_Rot_Bleep1)
(not P1_Rot_Buzzer)
(not P1_Rot_Cash_register)
(not P1_Rot_Cork)
(not P1_Rot_Game_Win)
(not P1_Rot_Drip)
(not P1_Rot_Gorod)
(not P1_Rot_Horn)
 P1_Rot_Laser_Trill(not P1_Rot_Police_Siren)
(not P1_Rot_Siren_1)
(not P1_Rot_Siren_2)
(not P1_Rot_yes))
(and(not P1_Rot_Beep1)
(not P1_Rot_Beep2)
(not P1_Rot_Beep3)
(not P1_Rot_Bleep1)
(not P1_Rot_Buzzer)
(not P1_Rot_Cash_register)
(not P1_Rot_Cork)
(not P1_Rot_Game_Win)
(not P1_Rot_Drip)
(not P1_Rot_Gorod)
(not P1_Rot_Horn)
(not P1_Rot_Laser_Trill)
 P1_Rot_Police_Siren(not P1_Rot_Siren_1)
(not P1_Rot_Siren_2)
(not P1_Rot_yes))
(and(not P1_Rot_Beep1)
(not P1_Rot_Beep2)
(not P1_Rot_Beep3)
(not P1_Rot_Bleep1)
(not P1_Rot_Buzzer)
(not P1_Rot_Cash_register)
(not P1_Rot_Cork)
(not P1_Rot_Game_Win)
(not P1_Rot_Drip)
(not P1_Rot_Gorod)
(not P1_Rot_Horn)
(not P1_Rot_Laser_Trill)
(not P1_Rot_Police_Siren)
 P1_Rot_Siren_1(not P1_Rot_Siren_2)
(not P1_Rot_yes))
(and(not P1_Rot_Beep1)
(not P1_Rot_Beep2)
(not P1_Rot_Beep3)
(not P1_Rot_Bleep1)
(not P1_Rot_Buzzer)
(not P1_Rot_Cash_register)
(not P1_Rot_Cork)
(not P1_Rot_Game_Win)
(not P1_Rot_Drip)
(not P1_Rot_Gorod)
(not P1_Rot_Horn)
(not P1_Rot_Laser_Trill)
(not P1_Rot_Police_Siren)
(not P1_Rot_Siren_1)
 P1_Rot_Siren_2(not P1_Rot_yes))
(and(not P1_Rot_Beep1)
(not P1_Rot_Beep2)
(not P1_Rot_Beep3)
(not P1_Rot_Bleep1)
(not P1_Rot_Buzzer)
(not P1_Rot_Cash_register)
(not P1_Rot_Cork)
(not P1_Rot_Game_Win)
(not P1_Rot_Drip)
(not P1_Rot_Gorod)
(not P1_Rot_Horn)
(not P1_Rot_Laser_Trill)
(not P1_Rot_Police_Siren)
(not P1_Rot_Siren_1)
(not P1_Rot_Siren_2)
 P1_Rot_yes))))
(and(implies(or P1_Mov_Beep1 P1_Mov_Beep2 P1_Mov_Beep3 P1_Mov_Bleep1 P1_Mov_Buzzer P1_Mov_Cash_Register P1_Mov_Cork P1_Mov_Game_Win P1_Mov_Drip P1_Mov_Gorod P1_Mov_Horn P1_Mov_LaserTrill P1_Mov_Police_Siren P1_Mov_Siren_1 P1_Mov_Siren2 P1_Mov_yes)
 PLayer1_Sound_Movement)
(implies PLayer1_Sound_Movement(or(and P1_Mov_Beep1(not P1_Mov_Beep2)
(not P1_Mov_Beep3)
(not P1_Mov_Bleep1)
(not P1_Mov_Buzzer)
(not P1_Mov_Cash_Register)
(not P1_Mov_Cork)
(not P1_Mov_Game_Win)
(not P1_Mov_Drip)
(not P1_Mov_Gorod)
(not P1_Mov_Horn)
(not P1_Mov_LaserTrill)
(not P1_Mov_Police_Siren)
(not P1_Mov_Siren_1)
(not P1_Mov_Siren2)
(not P1_Mov_yes))
(and(not P1_Mov_Beep1)
 P1_Mov_Beep2(not P1_Mov_Beep3)
(not P1_Mov_Bleep1)
(not P1_Mov_Buzzer)
(not P1_Mov_Cash_Register)
(not P1_Mov_Cork)
(not P1_Mov_Game_Win)
(not P1_Mov_Drip)
(not P1_Mov_Gorod)
(not P1_Mov_Horn)
(not P1_Mov_LaserTrill)
(not P1_Mov_Police_Siren)
(not P1_Mov_Siren_1)
(not P1_Mov_Siren2)
(not P1_Mov_yes))
(and(not P1_Mov_Beep1)
(not P1_Mov_Beep2)
 P1_Mov_Beep3(not P1_Mov_Bleep1)
(not P1_Mov_Buzzer)
(not P1_Mov_Cash_Register)
(not P1_Mov_Cork)
(not P1_Mov_Game_Win)
(not P1_Mov_Drip)
(not P1_Mov_Gorod)
(not P1_Mov_Horn)
(not P1_Mov_LaserTrill)
(not P1_Mov_Police_Siren)
(not P1_Mov_Siren_1)
(not P1_Mov_Siren2)
(not P1_Mov_yes))
(and(not P1_Mov_Beep1)
(not P1_Mov_Beep2)
(not P1_Mov_Beep3)
 P1_Mov_Bleep1(not P1_Mov_Buzzer)
(not P1_Mov_Cash_Register)
(not P1_Mov_Cork)
(not P1_Mov_Game_Win)
(not P1_Mov_Drip)
(not P1_Mov_Gorod)
(not P1_Mov_Horn)
(not P1_Mov_LaserTrill)
(not P1_Mov_Police_Siren)
(not P1_Mov_Siren_1)
(not P1_Mov_Siren2)
(not P1_Mov_yes))
(and(not P1_Mov_Beep1)
(not P1_Mov_Beep2)
(not P1_Mov_Beep3)
(not P1_Mov_Bleep1)
 P1_Mov_Buzzer(not P1_Mov_Cash_Register)
(not P1_Mov_Cork)
(not P1_Mov_Game_Win)
(not P1_Mov_Drip)
(not P1_Mov_Gorod)
(not P1_Mov_Horn)
(not P1_Mov_LaserTrill)
(not P1_Mov_Police_Siren)
(not P1_Mov_Siren_1)
(not P1_Mov_Siren2)
(not P1_Mov_yes))
(and(not P1_Mov_Beep1)
(not P1_Mov_Beep2)
(not P1_Mov_Beep3)
(not P1_Mov_Bleep1)
(not P1_Mov_Buzzer)
 P1_Mov_Cash_Register(not P1_Mov_Cork)
(not P1_Mov_Game_Win)
(not P1_Mov_Drip)
(not P1_Mov_Gorod)
(not P1_Mov_Horn)
(not P1_Mov_LaserTrill)
(not P1_Mov_Police_Siren)
(not P1_Mov_Siren_1)
(not P1_Mov_Siren2)
(not P1_Mov_yes))
(and(not P1_Mov_Beep1)
(not P1_Mov_Beep2)
(not P1_Mov_Beep3)
(not P1_Mov_Bleep1)
(not P1_Mov_Buzzer)
(not P1_Mov_Cash_Register)
 P1_Mov_Cork(not P1_Mov_Game_Win)
(not P1_Mov_Drip)
(not P1_Mov_Gorod)
(not P1_Mov_Horn)
(not P1_Mov_LaserTrill)
(not P1_Mov_Police_Siren)
(not P1_Mov_Siren_1)
(not P1_Mov_Siren2)
(not P1_Mov_yes))
(and(not P1_Mov_Beep1)
(not P1_Mov_Beep2)
(not P1_Mov_Beep3)
(not P1_Mov_Bleep1)
(not P1_Mov_Buzzer)
(not P1_Mov_Cash_Register)
(not P1_Mov_Cork)
 P1_Mov_Game_Win(not P1_Mov_Drip)
(not P1_Mov_Gorod)
(not P1_Mov_Horn)
(not P1_Mov_LaserTrill)
(not P1_Mov_Police_Siren)
(not P1_Mov_Siren_1)
(not P1_Mov_Siren2)
(not P1_Mov_yes))
(and(not P1_Mov_Beep1)
(not P1_Mov_Beep2)
(not P1_Mov_Beep3)
(not P1_Mov_Bleep1)
(not P1_Mov_Buzzer)
(not P1_Mov_Cash_Register)
(not P1_Mov_Cork)
(not P1_Mov_Game_Win)
 P1_Mov_Drip(not P1_Mov_Gorod)
(not P1_Mov_Horn)
(not P1_Mov_LaserTrill)
(not P1_Mov_Police_Siren)
(not P1_Mov_Siren_1)
(not P1_Mov_Siren2)
(not P1_Mov_yes))
(and(not P1_Mov_Beep1)
(not P1_Mov_Beep2)
(not P1_Mov_Beep3)
(not P1_Mov_Bleep1)
(not P1_Mov_Buzzer)
(not P1_Mov_Cash_Register)
(not P1_Mov_Cork)
(not P1_Mov_Game_Win)
(not P1_Mov_Drip)
 P1_Mov_Gorod(not P1_Mov_Horn)
(not P1_Mov_LaserTrill)
(not P1_Mov_Police_Siren)
(not P1_Mov_Siren_1)
(not P1_Mov_Siren2)
(not P1_Mov_yes))
(and(not P1_Mov_Beep1)
(not P1_Mov_Beep2)
(not P1_Mov_Beep3)
(not P1_Mov_Bleep1)
(not P1_Mov_Buzzer)
(not P1_Mov_Cash_Register)
(not P1_Mov_Cork)
(not P1_Mov_Game_Win)
(not P1_Mov_Drip)
(not P1_Mov_Gorod)
 P1_Mov_Horn(not P1_Mov_LaserTrill)
(not P1_Mov_Police_Siren)
(not P1_Mov_Siren_1)
(not P1_Mov_Siren2)
(not P1_Mov_yes))
(and(not P1_Mov_Beep1)
(not P1_Mov_Beep2)
(not P1_Mov_Beep3)
(not P1_Mov_Bleep1)
(not P1_Mov_Buzzer)
(not P1_Mov_Cash_Register)
(not P1_Mov_Cork)
(not P1_Mov_Game_Win)
(not P1_Mov_Drip)
(not P1_Mov_Gorod)
(not P1_Mov_Horn)
 P1_Mov_LaserTrill(not P1_Mov_Police_Siren)
(not P1_Mov_Siren_1)
(not P1_Mov_Siren2)
(not P1_Mov_yes))
(and(not P1_Mov_Beep1)
(not P1_Mov_Beep2)
(not P1_Mov_Beep3)
(not P1_Mov_Bleep1)
(not P1_Mov_Buzzer)
(not P1_Mov_Cash_Register)
(not P1_Mov_Cork)
(not P1_Mov_Game_Win)
(not P1_Mov_Drip)
(not P1_Mov_Gorod)
(not P1_Mov_Horn)
(not P1_Mov_LaserTrill)
 P1_Mov_Police_Siren(not P1_Mov_Siren_1)
(not P1_Mov_Siren2)
(not P1_Mov_yes))
(and(not P1_Mov_Beep1)
(not P1_Mov_Beep2)
(not P1_Mov_Beep3)
(not P1_Mov_Bleep1)
(not P1_Mov_Buzzer)
(not P1_Mov_Cash_Register)
(not P1_Mov_Cork)
(not P1_Mov_Game_Win)
(not P1_Mov_Drip)
(not P1_Mov_Gorod)
(not P1_Mov_Horn)
(not P1_Mov_LaserTrill)
(not P1_Mov_Police_Siren)
 P1_Mov_Siren_1(not P1_Mov_Siren2)
(not P1_Mov_yes))
(and(not P1_Mov_Beep1)
(not P1_Mov_Beep2)
(not P1_Mov_Beep3)
(not P1_Mov_Bleep1)
(not P1_Mov_Buzzer)
(not P1_Mov_Cash_Register)
(not P1_Mov_Cork)
(not P1_Mov_Game_Win)
(not P1_Mov_Drip)
(not P1_Mov_Gorod)
(not P1_Mov_Horn)
(not P1_Mov_LaserTrill)
(not P1_Mov_Police_Siren)
(not P1_Mov_Siren_1)
 P1_Mov_Siren2(not P1_Mov_yes))
(and(not P1_Mov_Beep1)
(not P1_Mov_Beep2)
(not P1_Mov_Beep3)
(not P1_Mov_Bleep1)
(not P1_Mov_Buzzer)
(not P1_Mov_Cash_Register)
(not P1_Mov_Cork)
(not P1_Mov_Game_Win)
(not P1_Mov_Drip)
(not P1_Mov_Gorod)
(not P1_Mov_Horn)
(not P1_Mov_LaserTrill)
(not P1_Mov_Police_Siren)
(not P1_Mov_Siren_1)
(not P1_Mov_Siren2)
 P1_Mov_yes))))
(and(implies(or P2_Rot_Beep1 P2_Rot_Beep2 P2_Rot_Beep3 P2_Rot_Bleep1 P2_Rot_Buzzer P2_Rot_Cash_Register P2_Rot_Cork P2_Rot_Game_Win P2_Rot_Drip P2_Rot_Gorod P2_Rot_Horn P2_Rot_Laser_Trill P2_Rot_Police_Siren P2_Rot_Siren_1 P2_Rot_Siren_2 P2_Rot_Yes)
 Player2_Sound_Rotation)
(implies Player2_Sound_Rotation(or(and P2_Rot_Beep1(not P2_Rot_Beep2)
(not P2_Rot_Beep3)
(not P2_Rot_Bleep1)
(not P2_Rot_Buzzer)
(not P2_Rot_Cash_Register)
(not P2_Rot_Cork)
(not P2_Rot_Game_Win)
(not P2_Rot_Drip)
(not P2_Rot_Gorod)
(not P2_Rot_Horn)
(not P2_Rot_Laser_Trill)
(not P2_Rot_Police_Siren)
(not P2_Rot_Siren_1)
(not P2_Rot_Siren_2)
(not P2_Rot_Yes))
(and(not P2_Rot_Beep1)
 P2_Rot_Beep2(not P2_Rot_Beep3)
(not P2_Rot_Bleep1)
(not P2_Rot_Buzzer)
(not P2_Rot_Cash_Register)
(not P2_Rot_Cork)
(not P2_Rot_Game_Win)
(not P2_Rot_Drip)
(not P2_Rot_Gorod)
(not P2_Rot_Horn)
(not P2_Rot_Laser_Trill)
(not P2_Rot_Police_Siren)
(not P2_Rot_Siren_1)
(not P2_Rot_Siren_2)
(not P2_Rot_Yes))
(and(not P2_Rot_Beep1)
(not P2_Rot_Beep2)
 P2_Rot_Beep3(not P2_Rot_Bleep1)
(not P2_Rot_Buzzer)
(not P2_Rot_Cash_Register)
(not P2_Rot_Cork)
(not P2_Rot_Game_Win)
(not P2_Rot_Drip)
(not P2_Rot_Gorod)
(not P2_Rot_Horn)
(not P2_Rot_Laser_Trill)
(not P2_Rot_Police_Siren)
(not P2_Rot_Siren_1)
(not P2_Rot_Siren_2)
(not P2_Rot_Yes))
(and(not P2_Rot_Beep1)
(not P2_Rot_Beep2)
(not P2_Rot_Beep3)
 P2_Rot_Bleep1(not P2_Rot_Buzzer)
(not P2_Rot_Cash_Register)
(not P2_Rot_Cork)
(not P2_Rot_Game_Win)
(not P2_Rot_Drip)
(not P2_Rot_Gorod)
(not P2_Rot_Horn)
(not P2_Rot_Laser_Trill)
(not P2_Rot_Police_Siren)
(not P2_Rot_Siren_1)
(not P2_Rot_Siren_2)
(not P2_Rot_Yes))
(and(not P2_Rot_Beep1)
(not P2_Rot_Beep2)
(not P2_Rot_Beep3)
(not P2_Rot_Bleep1)
 P2_Rot_Buzzer(not P2_Rot_Cash_Register)
(not P2_Rot_Cork)
(not P2_Rot_Game_Win)
(not P2_Rot_Drip)
(not P2_Rot_Gorod)
(not P2_Rot_Horn)
(not P2_Rot_Laser_Trill)
(not P2_Rot_Police_Siren)
(not P2_Rot_Siren_1)
(not P2_Rot_Siren_2)
(not P2_Rot_Yes))
(and(not P2_Rot_Beep1)
(not P2_Rot_Beep2)
(not P2_Rot_Beep3)
(not P2_Rot_Bleep1)
(not P2_Rot_Buzzer)
 P2_Rot_Cash_Register(not P2_Rot_Cork)
(not P2_Rot_Game_Win)
(not P2_Rot_Drip)
(not P2_Rot_Gorod)
(not P2_Rot_Horn)
(not P2_Rot_Laser_Trill)
(not P2_Rot_Police_Siren)
(not P2_Rot_Siren_1)
(not P2_Rot_Siren_2)
(not P2_Rot_Yes))
(and(not P2_Rot_Beep1)
(not P2_Rot_Beep2)
(not P2_Rot_Beep3)
(not P2_Rot_Bleep1)
(not P2_Rot_Buzzer)
(not P2_Rot_Cash_Register)
 P2_Rot_Cork(not P2_Rot_Game_Win)
(not P2_Rot_Drip)
(not P2_Rot_Gorod)
(not P2_Rot_Horn)
(not P2_Rot_Laser_Trill)
(not P2_Rot_Police_Siren)
(not P2_Rot_Siren_1)
(not P2_Rot_Siren_2)
(not P2_Rot_Yes))
(and(not P2_Rot_Beep1)
(not P2_Rot_Beep2)
(not P2_Rot_Beep3)
(not P2_Rot_Bleep1)
(not P2_Rot_Buzzer)
(not P2_Rot_Cash_Register)
(not P2_Rot_Cork)
 P2_Rot_Game_Win(not P2_Rot_Drip)
(not P2_Rot_Gorod)
(not P2_Rot_Horn)
(not P2_Rot_Laser_Trill)
(not P2_Rot_Police_Siren)
(not P2_Rot_Siren_1)
(not P2_Rot_Siren_2)
(not P2_Rot_Yes))
(and(not P2_Rot_Beep1)
(not P2_Rot_Beep2)
(not P2_Rot_Beep3)
(not P2_Rot_Bleep1)
(not P2_Rot_Buzzer)
(not P2_Rot_Cash_Register)
(not P2_Rot_Cork)
(not P2_Rot_Game_Win)
 P2_Rot_Drip(not P2_Rot_Gorod)
(not P2_Rot_Horn)
(not P2_Rot_Laser_Trill)
(not P2_Rot_Police_Siren)
(not P2_Rot_Siren_1)
(not P2_Rot_Siren_2)
(not P2_Rot_Yes))
(and(not P2_Rot_Beep1)
(not P2_Rot_Beep2)
(not P2_Rot_Beep3)
(not P2_Rot_Bleep1)
(not P2_Rot_Buzzer)
(not P2_Rot_Cash_Register)
(not P2_Rot_Cork)
(not P2_Rot_Game_Win)
(not P2_Rot_Drip)
 P2_Rot_Gorod(not P2_Rot_Horn)
(not P2_Rot_Laser_Trill)
(not P2_Rot_Police_Siren)
(not P2_Rot_Siren_1)
(not P2_Rot_Siren_2)
(not P2_Rot_Yes))
(and(not P2_Rot_Beep1)
(not P2_Rot_Beep2)
(not P2_Rot_Beep3)
(not P2_Rot_Bleep1)
(not P2_Rot_Buzzer)
(not P2_Rot_Cash_Register)
(not P2_Rot_Cork)
(not P2_Rot_Game_Win)
(not P2_Rot_Drip)
(not P2_Rot_Gorod)
 P2_Rot_Horn(not P2_Rot_Laser_Trill)
(not P2_Rot_Police_Siren)
(not P2_Rot_Siren_1)
(not P2_Rot_Siren_2)
(not P2_Rot_Yes))
(and(not P2_Rot_Beep1)
(not P2_Rot_Beep2)
(not P2_Rot_Beep3)
(not P2_Rot_Bleep1)
(not P2_Rot_Buzzer)
(not P2_Rot_Cash_Register)
(not P2_Rot_Cork)
(not P2_Rot_Game_Win)
(not P2_Rot_Drip)
(not P2_Rot_Gorod)
(not P2_Rot_Horn)
 P2_Rot_Laser_Trill(not P2_Rot_Police_Siren)
(not P2_Rot_Siren_1)
(not P2_Rot_Siren_2)
(not P2_Rot_Yes))
(and(not P2_Rot_Beep1)
(not P2_Rot_Beep2)
(not P2_Rot_Beep3)
(not P2_Rot_Bleep1)
(not P2_Rot_Buzzer)
(not P2_Rot_Cash_Register)
(not P2_Rot_Cork)
(not P2_Rot_Game_Win)
(not P2_Rot_Drip)
(not P2_Rot_Gorod)
(not P2_Rot_Horn)
(not P2_Rot_Laser_Trill)
 P2_Rot_Police_Siren(not P2_Rot_Siren_1)
(not P2_Rot_Siren_2)
(not P2_Rot_Yes))
(and(not P2_Rot_Beep1)
(not P2_Rot_Beep2)
(not P2_Rot_Beep3)
(not P2_Rot_Bleep1)
(not P2_Rot_Buzzer)
(not P2_Rot_Cash_Register)
(not P2_Rot_Cork)
(not P2_Rot_Game_Win)
(not P2_Rot_Drip)
(not P2_Rot_Gorod)
(not P2_Rot_Horn)
(not P2_Rot_Laser_Trill)
(not P2_Rot_Police_Siren)
 P2_Rot_Siren_1(not P2_Rot_Siren_2)
(not P2_Rot_Yes))
(and(not P2_Rot_Beep1)
(not P2_Rot_Beep2)
(not P2_Rot_Beep3)
(not P2_Rot_Bleep1)
(not P2_Rot_Buzzer)
(not P2_Rot_Cash_Register)
(not P2_Rot_Cork)
(not P2_Rot_Game_Win)
(not P2_Rot_Drip)
(not P2_Rot_Gorod)
(not P2_Rot_Horn)
(not P2_Rot_Laser_Trill)
(not P2_Rot_Police_Siren)
(not P2_Rot_Siren_1)
 P2_Rot_Siren_2(not P2_Rot_Yes))
(and(not P2_Rot_Beep1)
(not P2_Rot_Beep2)
(not P2_Rot_Beep3)
(not P2_Rot_Bleep1)
(not P2_Rot_Buzzer)
(not P2_Rot_Cash_Register)
(not P2_Rot_Cork)
(not P2_Rot_Game_Win)
(not P2_Rot_Drip)
(not P2_Rot_Gorod)
(not P2_Rot_Horn)
(not P2_Rot_Laser_Trill)
(not P2_Rot_Police_Siren)
(not P2_Rot_Siren_1)
(not P2_Rot_Siren_2)
 P2_Rot_Yes))))
(and(implies(or P2_Mov_Beep1 P2_Mov_Beep2 P2_Mov_Beep3 P2_Mov_Bleep1 P2_Mov_Buzzer P2_Mov_Cah_Register P2_Mov_cork P2_Mov_Game_Win P2_Mov_Drip P2_Mov_Gorord P2_Mov_Horn P2_Mov_LaserTrill P2_Mov_Police_Siren P2_Mov_Siren_1 P2_Mov_Siren_2 P2_Mov_Yes)
 Player2_Sound_Movement)
(implies Player2_Sound_Movement(or(and P2_Mov_Beep1(not P2_Mov_Beep2)
(not P2_Mov_Beep3)
(not P2_Mov_Bleep1)
(not P2_Mov_Buzzer)
(not P2_Mov_Cah_Register)
(not P2_Mov_cork)
(not P2_Mov_Game_Win)
(not P2_Mov_Drip)
(not P2_Mov_Gorord)
(not P2_Mov_Horn)
(not P2_Mov_LaserTrill)
(not P2_Mov_Police_Siren)
(not P2_Mov_Siren_1)
(not P2_Mov_Siren_2)
(not P2_Mov_Yes))
(and(not P2_Mov_Beep1)
 P2_Mov_Beep2(not P2_Mov_Beep3)
(not P2_Mov_Bleep1)
(not P2_Mov_Buzzer)
(not P2_Mov_Cah_Register)
(not P2_Mov_cork)
(not P2_Mov_Game_Win)
(not P2_Mov_Drip)
(not P2_Mov_Gorord)
(not P2_Mov_Horn)
(not P2_Mov_LaserTrill)
(not P2_Mov_Police_Siren)
(not P2_Mov_Siren_1)
(not P2_Mov_Siren_2)
(not P2_Mov_Yes))
(and(not P2_Mov_Beep1)
(not P2_Mov_Beep2)
 P2_Mov_Beep3(not P2_Mov_Bleep1)
(not P2_Mov_Buzzer)
(not P2_Mov_Cah_Register)
(not P2_Mov_cork)
(not P2_Mov_Game_Win)
(not P2_Mov_Drip)
(not P2_Mov_Gorord)
(not P2_Mov_Horn)
(not P2_Mov_LaserTrill)
(not P2_Mov_Police_Siren)
(not P2_Mov_Siren_1)
(not P2_Mov_Siren_2)
(not P2_Mov_Yes))
(and(not P2_Mov_Beep1)
(not P2_Mov_Beep2)
(not P2_Mov_Beep3)
 P2_Mov_Bleep1(not P2_Mov_Buzzer)
(not P2_Mov_Cah_Register)
(not P2_Mov_cork)
(not P2_Mov_Game_Win)
(not P2_Mov_Drip)
(not P2_Mov_Gorord)
(not P2_Mov_Horn)
(not P2_Mov_LaserTrill)
(not P2_Mov_Police_Siren)
(not P2_Mov_Siren_1)
(not P2_Mov_Siren_2)
(not P2_Mov_Yes))
(and(not P2_Mov_Beep1)
(not P2_Mov_Beep2)
(not P2_Mov_Beep3)
(not P2_Mov_Bleep1)
 P2_Mov_Buzzer(not P2_Mov_Cah_Register)
(not P2_Mov_cork)
(not P2_Mov_Game_Win)
(not P2_Mov_Drip)
(not P2_Mov_Gorord)
(not P2_Mov_Horn)
(not P2_Mov_LaserTrill)
(not P2_Mov_Police_Siren)
(not P2_Mov_Siren_1)
(not P2_Mov_Siren_2)
(not P2_Mov_Yes))
(and(not P2_Mov_Beep1)
(not P2_Mov_Beep2)
(not P2_Mov_Beep3)
(not P2_Mov_Bleep1)
(not P2_Mov_Buzzer)
 P2_Mov_Cah_Register(not P2_Mov_cork)
(not P2_Mov_Game_Win)
(not P2_Mov_Drip)
(not P2_Mov_Gorord)
(not P2_Mov_Horn)
(not P2_Mov_LaserTrill)
(not P2_Mov_Police_Siren)
(not P2_Mov_Siren_1)
(not P2_Mov_Siren_2)
(not P2_Mov_Yes))
(and(not P2_Mov_Beep1)
(not P2_Mov_Beep2)
(not P2_Mov_Beep3)
(not P2_Mov_Bleep1)
(not P2_Mov_Buzzer)
(not P2_Mov_Cah_Register)
 P2_Mov_cork(not P2_Mov_Game_Win)
(not P2_Mov_Drip)
(not P2_Mov_Gorord)
(not P2_Mov_Horn)
(not P2_Mov_LaserTrill)
(not P2_Mov_Police_Siren)
(not P2_Mov_Siren_1)
(not P2_Mov_Siren_2)
(not P2_Mov_Yes))
(and(not P2_Mov_Beep1)
(not P2_Mov_Beep2)
(not P2_Mov_Beep3)
(not P2_Mov_Bleep1)
(not P2_Mov_Buzzer)
(not P2_Mov_Cah_Register)
(not P2_Mov_cork)
 P2_Mov_Game_Win(not P2_Mov_Drip)
(not P2_Mov_Gorord)
(not P2_Mov_Horn)
(not P2_Mov_LaserTrill)
(not P2_Mov_Police_Siren)
(not P2_Mov_Siren_1)
(not P2_Mov_Siren_2)
(not P2_Mov_Yes))
(and(not P2_Mov_Beep1)
(not P2_Mov_Beep2)
(not P2_Mov_Beep3)
(not P2_Mov_Bleep1)
(not P2_Mov_Buzzer)
(not P2_Mov_Cah_Register)
(not P2_Mov_cork)
(not P2_Mov_Game_Win)
 P2_Mov_Drip(not P2_Mov_Gorord)
(not P2_Mov_Horn)
(not P2_Mov_LaserTrill)
(not P2_Mov_Police_Siren)
(not P2_Mov_Siren_1)
(not P2_Mov_Siren_2)
(not P2_Mov_Yes))
(and(not P2_Mov_Beep1)
(not P2_Mov_Beep2)
(not P2_Mov_Beep3)
(not P2_Mov_Bleep1)
(not P2_Mov_Buzzer)
(not P2_Mov_Cah_Register)
(not P2_Mov_cork)
(not P2_Mov_Game_Win)
(not P2_Mov_Drip)
 P2_Mov_Gorord(not P2_Mov_Horn)
(not P2_Mov_LaserTrill)
(not P2_Mov_Police_Siren)
(not P2_Mov_Siren_1)
(not P2_Mov_Siren_2)
(not P2_Mov_Yes))
(and(not P2_Mov_Beep1)
(not P2_Mov_Beep2)
(not P2_Mov_Beep3)
(not P2_Mov_Bleep1)
(not P2_Mov_Buzzer)
(not P2_Mov_Cah_Register)
(not P2_Mov_cork)
(not P2_Mov_Game_Win)
(not P2_Mov_Drip)
(not P2_Mov_Gorord)
 P2_Mov_Horn(not P2_Mov_LaserTrill)
(not P2_Mov_Police_Siren)
(not P2_Mov_Siren_1)
(not P2_Mov_Siren_2)
(not P2_Mov_Yes))
(and(not P2_Mov_Beep1)
(not P2_Mov_Beep2)
(not P2_Mov_Beep3)
(not P2_Mov_Bleep1)
(not P2_Mov_Buzzer)
(not P2_Mov_Cah_Register)
(not P2_Mov_cork)
(not P2_Mov_Game_Win)
(not P2_Mov_Drip)
(not P2_Mov_Gorord)
(not P2_Mov_Horn)
 P2_Mov_LaserTrill(not P2_Mov_Police_Siren)
(not P2_Mov_Siren_1)
(not P2_Mov_Siren_2)
(not P2_Mov_Yes))
(and(not P2_Mov_Beep1)
(not P2_Mov_Beep2)
(not P2_Mov_Beep3)
(not P2_Mov_Bleep1)
(not P2_Mov_Buzzer)
(not P2_Mov_Cah_Register)
(not P2_Mov_cork)
(not P2_Mov_Game_Win)
(not P2_Mov_Drip)
(not P2_Mov_Gorord)
(not P2_Mov_Horn)
(not P2_Mov_LaserTrill)
 P2_Mov_Police_Siren(not P2_Mov_Siren_1)
(not P2_Mov_Siren_2)
(not P2_Mov_Yes))
(and(not P2_Mov_Beep1)
(not P2_Mov_Beep2)
(not P2_Mov_Beep3)
(not P2_Mov_Bleep1)
(not P2_Mov_Buzzer)
(not P2_Mov_Cah_Register)
(not P2_Mov_cork)
(not P2_Mov_Game_Win)
(not P2_Mov_Drip)
(not P2_Mov_Gorord)
(not P2_Mov_Horn)
(not P2_Mov_LaserTrill)
(not P2_Mov_Police_Siren)
 P2_Mov_Siren_1(not P2_Mov_Siren_2)
(not P2_Mov_Yes))
(and(not P2_Mov_Beep1)
(not P2_Mov_Beep2)
(not P2_Mov_Beep3)
(not P2_Mov_Bleep1)
(not P2_Mov_Buzzer)
(not P2_Mov_Cah_Register)
(not P2_Mov_cork)
(not P2_Mov_Game_Win)
(not P2_Mov_Drip)
(not P2_Mov_Gorord)
(not P2_Mov_Horn)
(not P2_Mov_LaserTrill)
(not P2_Mov_Police_Siren)
(not P2_Mov_Siren_1)
 P2_Mov_Siren_2(not P2_Mov_Yes))
(and(not P2_Mov_Beep1)
(not P2_Mov_Beep2)
(not P2_Mov_Beep3)
(not P2_Mov_Bleep1)
(not P2_Mov_Buzzer)
(not P2_Mov_Cah_Register)
(not P2_Mov_cork)
(not P2_Mov_Game_Win)
(not P2_Mov_Drip)
(not P2_Mov_Gorord)
(not P2_Mov_Horn)
(not P2_Mov_LaserTrill)
(not P2_Mov_Police_Siren)
(not P2_Mov_Siren_1)
(not P2_Mov_Siren_2)
 P2_Mov_Yes))))
(and(implies Player1_Sound_Rotation Sounds)
(implies PLayer1_Sound_Movement Sounds)
(implies Player2_Sound_Rotation Sounds)
(implies Player2_Sound_Movement Sounds))
(and(= Tank_Player1 TankWar)
(= Tank_Player2 TankWar)
(= mov TankWar)
(= Power_Ups TankWar)
(= Background TankWar)
(= rocketStyle TankWar)
(= Sounds TankWar))
(and(implies Nr1 Activate_Power_Up)
(implies Nr2 Activate_Power_Up)
(implies Nr3 Activate_Power_Up)
(implies Nr4 Activate_Power_Up)
(implies Nr5 Activate_Power_Up)
(implies Nr6 Activate_Power_Up)
(implies Nr7 Activate_Power_Up)
(implies Nr8 Activate_Power_Up))
(and(implies tar TankWar)
(implies Hinderniss_Set TankWar)
(implies Activate_Power_Up TankWar))))
)